Version identifier: 22.1.0.0 | 2022-03-09 | 1a383f8ce
CPXPARAM_Read_DataCheck                          1
CPXPARAM_Threads                                 1
CPXPARAM_TimeLimit                               3600
Tried aggregator 2 times.
MIP Presolve eliminated 5787 rows and 424 columns.
MIP Presolve modified 25126 coefficients.
Aggregator did 79 substitutions.
Reduced MIP has 3895 rows, 477 columns, and 24702 nonzeros.
Reduced MIP has 334 binaries, 0 generals, 0 SOSs, and 0 indicators.
Presolve time = 0.06 sec. (51.60 ticks)
Found incumbent of value 125.193458 after 0.09 sec. (69.98 ticks)
Probing fixed 22 vars, tightened 18 bounds.
Probing time = 0.02 sec. (15.45 ticks)
Tried aggregator 1 time.
Detecting symmetries...
MIP Presolve eliminated 81 rows and 22 columns.
MIP Presolve modified 177 coefficients.
Reduced MIP has 3814 rows, 455 columns, and 24104 nonzeros.
Reduced MIP has 312 binaries, 0 generals, 0 SOSs, and 0 indicators.
Presolve time = 0.03 sec. (13.57 ticks)
Probing time = 0.01 sec. (4.86 ticks)
Clique table members: 2058.
MIP emphasis: balance optimality and feasibility.
MIP search method: dynamic search.
Parallel mode: none, using 1 thread.
Root relaxation solution time = 0.01 sec. (13.57 ticks)

        Nodes                                         Cuts/
   Node  Left     Objective  IInf  Best Integer    Best Bound    ItCnt     Gap

*     0+    0                          125.1935      108.4047            13.41%
      0     0      108.4047   103      125.1935      108.4047      219   13.41%
      0     0      108.4047    51      125.1935     Cuts: 508      592   13.41%
      0     0      108.4047    47      125.1935     Cuts: 323     1093   13.41%
      0     0      108.4047    32      125.1935     Cuts: 219     1523   13.41%
*     0+    0                          124.4681      108.4047            12.91%
      0     0  -1.00000e+75     0      124.4681      108.4047     1523   12.91%
      0     0      108.4047    40      124.4681     Cuts: 133     1918   12.91%
      0     0      108.4048    46      124.4681      Cuts: 97     2039   12.91%
Detecting symmetries...
*     0+    0                          109.6912      108.4048             1.17%
Detecting symmetries...

Repeating presolve.
Tried aggregator 1 time.
MIP Presolve eliminated 1472 rows and 135 columns.
MIP Presolve modified 4073 coefficients.
Reduced MIP has 2342 rows, 320 columns, and 12000 nonzeros.
Reduced MIP has 193 binaries, 0 generals, 0 SOSs, and 0 indicators.
Presolve time = 0.02 sec. (11.81 ticks)
Probing fixed 16 vars, tightened 60 bounds.
Probing time = 0.02 sec. (8.22 ticks)
Tried aggregator 1 time.
MIP Presolve eliminated 98 rows and 16 columns.
MIP Presolve modified 1075 coefficients.
Reduced MIP has 2244 rows, 304 columns, and 11468 nonzeros.
Reduced MIP has 177 binaries, 0 generals, 0 SOSs, and 0 indicators.
Presolve time = 0.01 sec. (6.36 ticks)
Probing time = 0.01 sec. (3.94 ticks)
Tried aggregator 1 time.
Detecting symmetries...
Reduced MIP has 2244 rows, 304 columns, and 11468 nonzeros.
Reduced MIP has 177 binaries, 0 generals, 0 SOSs, and 0 indicators.
Presolve time = 0.01 sec. (5.31 ticks)
Represolve time = 0.07 sec. (40.89 ticks)
Probing time = 0.01 sec. (3.92 ticks)
Clique table members: 1500.
MIP emphasis: balance optimality and feasibility.
MIP search method: dynamic search.
Parallel mode: none, using 1 thread.
Root relaxation solution time = 0.03 sec. (18.35 ticks)

        Nodes                                         Cuts/
   Node  Left     Objective  IInf  Best Integer    Best Bound    ItCnt     Gap

*     0+    0                          109.6912      108.4048             1.17%
      0     0      108.4049    45      109.6912      108.4049     2440    1.17%
      0     0      108.4052    28      109.6912     Cuts: 264     2492    1.17%
      0     0      108.4052    31      109.6912     Cuts: 183     2560    1.17%
      0     0      108.4052    20      109.6912      Cuts: 27     2606    1.17%
      0     0      108.4052    24      109.6912     Cuts: 187     2673    1.17%
*     0+    0                          108.8235      108.4052             0.38%
Detecting symmetries...
      0     2      108.4052    13      108.8235      108.4056     2674    0.38%
Elapsed time = 1.22 sec. (1007.81 ticks, tree = 0.01 MB, solutions = 4)
     63    45      108.8090    10      108.8235      108.4331     6016    0.36%
*    75    40      integral     0      108.7410      108.4356     6225    0.28%
    156    76      108.5088    19      108.7410      108.4559     8322    0.26%
*   175+   74                          108.7183      108.4628             0.23%
    189    77      108.4628    26      108.7183      108.4628    10059    0.23%
    243   100      108.4735    29      108.7183      108.4728    13473    0.23%
    307   128      108.4883    30      108.7183      108.4883    17099    0.21%
    364   159      108.6300    18      108.7183      108.4885    20390    0.21%
    465   187        cutoff            108.7183      108.4925    23912    0.21%
    550   194      108.6361    25      108.7183      108.5161    27143    0.19%
    622   185      108.7141    14      108.7183      108.5246    31442    0.18%
    997    88      108.6932    18      108.7183      108.6416    48277    0.07%
Elapsed time = 4.47 sec. (4187.30 ticks, tree = 0.30 MB, solutions = 6)

GUB cover cuts applied:  44
Clique cuts applied:  21
Cover cuts applied:  61
Implied bound cuts applied:  90
Flow cuts applied:  1
Mixed integer rounding cuts applied:  274
Zero-half cuts applied:  20
Lift and project cuts applied:  1
Gomory fractional cuts applied:  12

Root node processing (before b&c):
  Real time             =    1.23 sec. (1007.86 ticks)
Sequential b&c:
  Real time             =    3.94 sec. (3727.06 ticks)
                          ------------
Total (root+branch&cut) =    5.16 sec. (4734.92 ticks)
